Traveling Salesman Problem/TSP_generados/Aleatorio1621103844_18.tsp
NAME: Aleatorio1621103844_18.tsp
COMMENT: Randomly generated scenario
TYPE: TSP
DIMENSION: 18
EDGE_WEIGHT_TYPE: ATT
NODE_COORD_SECTION
1 12.33 22.35
2 33.71 48.54
3 46.0 44.61
4 39.1 42.74
5 29.14 48.11
6 10.82 49.76
7 28.68 32.34
8 10.7 3.55
9 38.33 48.21
10 44.9 0.37
11 35.47 19.65
12 36.01 5.75
13 48.46 35.96
14 0.95 49.99
15 18.2 28.74
16 4.03 48.98
17 11.09 12.25
18 0.42 31.13
