Traveling Salesman Problem/TSP_generados/Aleatorio1621103844_18.opt.tour
NAME: Aleatorio1621103844_18.opt.tour
COMMENT: Optimal solution for Aleatorio1621103844_18 (215.48693515755116)
TYPE: TOUR
DIMENSION: 18
TOUR_SECTION
1 15 18 14 16 6 5 2 9 4 3 13 7 11 10 12 8 17
-1
EOF
